Solver command line: ['C:\\gurobi950\\win64\\bin\\gurobi.bat']

Set parameter Username
Academic license - for non-commercial use only - expires 2023-07-07
Read LP format model from file C:\Users\steffejb\AppData\Local\Temp\tmp_uzrul7d.pyomo.lp
Reading time = 0.57 seconds
x166471: 60481 rows, 166471 columns, 788351 nonzeros
Gurobi Optimizer version 9.5.0 build v9.5.0rc5 (win64)
Thread count: 4 physical cores, 8 logical processors, using up to 8 threads
Optimize a model with 60481 rows, 166471 columns and 788351 nonzeros
Model fingerprint: 0x0ef1061e
Variable types: 166011 continuous, 460 integer (460 binary)
Coefficient statistics:
  Matrix range     [2e-01, 5e+08]
  Objective range  [5e-01, 5e-01]
  Bounds range     [1e+00, 1e+00]
  RHS range        [3e-02, 4e+07]
Warning: Model contains large matrix coefficients
         Consider reformulating model or setting NumericFocus parameter
         to avoid numerical issues.
Presolve removed 42808 rows and 68694 columns
Presolve time: 2.01s
Presolved: 17673 rows, 97777 columns, 297240 nonzeros
Variable types: 97473 continuous, 304 integer (304 binary)

Deterministic concurrent LP optimizer: primal and dual simplex
Showing first log only...


Root simplex log...

Iteration    Objective       Primal Inf.    Dual Inf.      Time
   39611    1.3614302e+15   7.465647e+02   1.796838e+14      5s
   76218    1.7159041e+15   0.000000e+00   4.172830e+15     10s
Concurrent spin time: 0.00s

Solved with dual simplex

Root relaxation: objective 1.448438e+15, 46465 iterations, 11.88 seconds (5.86 work units)

    Nodes    |    Current Node    |     Objective Bounds      |     Work
 Expl Unexpl |  Obj  Depth IntInf | Incumbent    BestBd   Gap | It/Node Time

     0     0 1.4484e+15    0   28          - 1.4484e+15      -     -   14s
H    0     0                    1.448438e+15 1.4484e+15  0.00%     -   14s

Explored 1 nodes (46465 simplex iterations) in 14.91 seconds (8.38 work units)
Thread count was 8 (of 8 available processors)

Solution count 1: 1.44844e+15 

Optimal solution found (tolerance 1.00e-04)
Warning: max constraint violation (9.8000e-01) exceeds tolerance
         (possibly due to large matrix coefficients)
Best objective 1.448437633435e+15, best bound 1.448437632995e+15, gap 0.0000%

